0000000000000000
0000000000000000
0000000000000000
0001110000000000
0001110000000000
0001110000000000
0001110000000000
0001111111111000
0000000000111000
0000000001110000
0000000011100000
0000000111000000
0000001110000000
0000011100000000
0000011100000000
0000000000000000
